AME : levi30_4
COMMENT : 30: 30x24 -city problem (levikoppenhol)
TYPE : TSP
DIMENSION : 30
EDGE_WEIGHT_TYPE : EUC_2D
NODE_COORD_SECTION
1 23 29
2 0 19
3 11 0
4 14 10
5 9 14
6 15 2
7 0 14
8 11 26
9 14 6
10 5 23
11 0 27
12 11 29
13 17 0
14 7 6
15 22 7
16 7 9
17 4 14
18 4 10
19 22 25
20 0 8
21 2 29
22 4 4
23 8 1
24 5 6
25 14 19
26 19 15
27 12 6
28 4 15
29 0 8
30 16 20
EOF